benchmarks_CP/INST_64x64/40/inst64x64_40_99.dzn
S=8;
start=[|
3,	-1,	-1,	-1,	-1,	-1,	2,	-1,	37,	-1,	63,	-1,	7,	11,	-1,	-1,	-1,	-1,	6,	-1,	33,	-1,	-1,	43,	-1,	-1,	-1,	45,	-1,	59,	29,	-1,	10,	-1,	-1,	13,	-1,	-1,	30,	-1,	-1,	40,	1,	-1,	-1,	-1,	21,	-1,	-1,	-1,	38,	-1,	-1,	-1,	-1,	-1,	34,	56,	57,	-1,	9,	-1,	35,	-1|
16,	-1,	-1,	-1,	-1,	-1,	-1,	35,	44,	20,	-1,	5,	45,	-1,	54,	-1,	12,	11,	-1,	32,	17,	48,	-1,	-1,	-1,	1,	-1,	-1,	9,	-1,	-1,	-1,	-1,	42,	31,	-1,	29,	58,	-1,	52,	3,	-1,	61,	-1,	-1,	-1,	2,	-1,	18,	-1,	-1,	15,	-1,	60,	-1,	-1,	23,	-1,	-1,	14,	41,	-1,	30,	64|
61,	49,	-1,	38,	-1,	-1,	42,	5,	43,	-1,	-1,	31,	-1,	48,	-1,	-1,	-1,	-1,	45,	-1,	-1,	-1,	-1,	-1,	-1,	-1,	-1,	39,	-1,	-1,	50,	-1,	25,	16,	-1,	18,	-1,	-1,	-1,	3,	59,	-1,	11,	41,	-1,	44,	-1,	-1,	-1,	-1,	58,	28,	37,	10,	-1,	-1,	46,	-1,	-1,	-1,	-1,	15,	40,	-1|
14,	-1,	48,	-1,	-1,	62,	-1,	8,	-1,	42,	13,	41,	49,	-1,	-1,	-1,	-1,	-1,	4,	-1,	-1,	51,	-1,	-1,	-1,	30,	-1,	16,	5,	-1,	-1,	7,	40,	-1,	20,	-1,	37,	53,	-1,	12,	-1,	32,	36,	-1,	-1,	-1,	-1,	60,	-1,	-1,	-1,	31,	-1,	-1,	1,	-1,	-1,	-1,	-1,	-1,	-1,	-1,	-1,	18|
-1,	-1,	-1,	-1,	-1,	-1,	-1,	24,	-1,	-1,	-1,	15,	-1,	57,	40,	-1,	-1,	-1,	55,	-1,	-1,	-1,	-1,	25,	10,	-1,	-1,	51,	-1,	-1,	-1,	-1,	34,	-1,	-1,	17,	-1,	-1,	46,	-1,	-1,	-1,	13,	-1,	16,	33,	63,	35,	-1,	-1,	53,	-1,	-1,	-1,	-1,	64,	1,	31,	32,	39,	-1,	-1,	-1,	-1|
-1,	21,	-1,	43,	57,	-1,	28,	55,	-1,	-1,	17,	-1,	25,	-1,	34,	27,	-1,	-1,	20,	18,	-1,	-1,	31,	-1,	-1,	15,	-1,	36,	-1,	35,	56,	-1,	-1,	-1,	-1,	19,	61,	-1,	-1,	41,	-1,	-1,	-1,	47,	38,	-1,	-1,	51,	-1,	-1,	11,	-1,	-1,	-1,	-1,	-1,	-1,	-1,	-1,	-1,	37,	-1,	13,	12|
11,	-1,	-1,	4,	-1,	32,	-1,	-1,	-1,	-1,	24,	-1,	-1,	-1,	-1,	35,	21,	13,	-1,	-1,	-1,	57,	-1,	8,	-1,	-1,	-1,	-1,	-1,	-1,	-1,	62,	-1,	-1,	43,	-1,	45,	5,	9,	-1,	-1,	31,	-1,	54,	-1,	-1,	12,	-1,	47,	-1,	29,	-1,	-1,	-1,	27,	-1,	-1,	63,	28,	-1,	-1,	-1,	33,	19|
1,	64,	-1,	-1,	33,	-1,	31,	-1,	-1,	53,	62,	-1,	-1,	21,	-1,	-1,	3,	56,	40,	59,	42,	-1,	-1,	5,	22,	-1,	-1,	-1,	-1,	58,	18,	25,	-1,	-1,	-1,	39,	50,	47,	-1,	-1,	17,	-1,	-1,	49,	-1,	57,	6,	37,	35,	-1,	-1,	-1,	-1,	13,	16,	51,	54,	-1,	61,	-1,	-1,	-1,	-1,	4|
64,	3,	55,	7,	-1,	-1,	27,	-1,	-1,	-1,	25,	40,	63,	43,	-1,	-1,	-1,	-1,	-1,	17,	-1,	-1,	-1,	-1,	20,	-1,	-1,	31,	-1,	-1,	45,	-1,	-1,	5,	-1,	-1,	13,	-1,	11,	-1,	-1,	-1,	57,	-1,	-1,	-1,	-1,	32,	54,	-1,	-1,	23,	-1,	-1,	30,	-1,	33,	-1,	15,	4,	-1,	51,	56,	-1|
8,	-1,	47,	-1,	-1,	-1,	32,	-1,	29,	13,	-1,	18,	-1,	5,	48,	-1,	-1,	44,	-1,	-1,	-1,	-1,	4,	-1,	46,	-1,	-1,	-1,	-1,	-1,	-1,	-1,	9,	-1,	-1,	51,	6,	-1,	-1,	53,	-1,	-1,	-1,	-1,	15,	30,	59,	16,	-1,	-1,	-1,	35,	-1,	-1,	42,	14,	-1,	-1,	-1,	7,	-1,	-1,	-1,	17|
-1,	-1,	26,	-1,	39,	-1,	-1,	-1,	-1,	28,	49,	-1,	-1,	-1,	-1,	-1,	-1,	-1,	-1,	9,	43,	-1,	2,	32,	-1,	22,	-1,	-1,	51,	27,	54,	-1,	-1,	56,	42,	-1,	-1,	37,	-1,	16,	-1,	-1,	-1,	23,	5,	48,	-1,	34,	-1,	-1,	-1,	-1,	-1,	-1,	-1,	7,	-1,	60,	59,	-1,	-1,	21,	1,	61|
12,	17,	-1,	53,	-1,	-1,	22,	-1,	-1,	1,	-1,	20,	-1,	-1,	9,	56,	14,	-1,	-1,	-1,	64,	-1,	-1,	60,	-1,	-1,	-1,	15,	-1,	-1,	-1,	-1,	-1,	-1,	-1,	-1,	-1,	27,	-1,	21,	-1,	-1,	-1,	58,	2,	7,	26,	-1,	-1,	-1,	-1,	8,	-1,	-1,	50,	34,	-1,	-1,	-1,	52,	45,	-1,	-1,	-1|
-1,	-1,	-1,	-1,	-1,	-1,	11,	-1,	-1,	46,	59,	26,	-1,	-1,	-1,	-1,	47,	-1,	-1,	-1,	56,	-1,	-1,	52,	-1,	-1,	-1,	41,	-1,	29,	-1,	-1,	14,	-1,	-1,	-1,	24,	-1,	15,	38,	43,	63,	-1,	-1,	31,	20,	-1,	-1,	6,	-1,	33,	-1,	61,	-1,	-1,	-1,	-1,	-1,	48,	-1,	-1,	28,	-1,	-1|
30,	-1,	24,	48,	-1,	43,	-1,	21,	14,	-1,	-1,	57,	39,	-1,	53,	6,	-1,	63,	29,	37,	5,	-1,	-1,	-1,	28,	56,	-1,	-1,	17,	-1,	11,	-1,	49,	33,	55,	-1,	-1,	-1,	-1,	-1,	22,	8,	-1,	-1,	-1,	-1,	3,	12,	-1,	60,	26,	-1,	-1,	-1,	-1,	-1,	35,	-1,	10,	-1,	23,	-1,	16,	-1|
58,	-1,	-1,	-1,	31,	-1,	-1,	-1,	-1,	-1,	-1,	-1,	17,	32,	-1,	42,	-1,	16,	8,	-1,	27,	-1,	-1,	-1,	-1,	50,	-1,	-1,	-1,	-1,	60,	-1,	-1,	-1,	-1,	-1,	-1,	-1,	1,	-1,	41,	-1,	-1,	-1,	-1,	61,	54,	-1,	-1,	39,	9,	-1,	-1,	-1,	-1,	-1,	-1,	-1,	11,	49,	20,	3,	43,	-1|
-1,	-1,	33,	-1,	51,	-1,	56,	-1,	-1,	-1,	-1,	38,	-1,	-1,	-1,	2,	25,	54,	-1,	26,	61,	-1,	-1,	-1,	-1,	-1,	-1,	-1,	-1,	-1,	-1,	-1,	45,	58,	32,	-1,	59,	48,	-1,	-1,	40,	-1,	-1,	-1,	-1,	4,	-1,	-1,	-1,	-1,	16,	-1,	-1,	64,	-1,	27,	-1,	37,	-1,	-1,	22,	-1,	8,	-1|
52,	-1,	-1,	-1,	62,	-1,	-1,	26,	-1,	55,	36,	-1,	-1,	-1,	50,	3,	-1,	-1,	-1,	-1,	57,	-1,	-1,	64,	-1,	60,	-1,	58,	30,	15,	-1,	-1,	-1,	-1,	-1,	43,	-1,	-1,	12,	-1,	-1,	35,	4,	18,	-1,	-1,	-1,	20,	46,	-1,	-1,	-1,	-1,	-1,	-1,	-1,	47,	-1,	8,	-1,	-1,	39,	-1,	-1|
36,	41,	-1,	-1,	4,	3,	-1,	-1,	1,	-1,	21,	-1,	-1,	-1,	-1,	-1,	-1,	27,	-1,	-1,	59,	-1,	55,	19,	-1,	-1,	26,	-1,	-1,	11,	-1,	6,	-1,	22,	-1,	32,	-1,	2,	5,	-1,	54,	-1,	43,	-1,	-1,	-1,	50,	-1,	-1,	-1,	52,	-1,	-1,	-1,	-1,	-1,	31,	-1,	-1,	-1,	-1,	-1,	-1,	-1|
-1,	-1,	-1,	-1,	-1,	-1,	-1,	-1,	-1,	-1,	-1,	63,	-1,	54,	-1,	34,	-1,	-1,	30,	-1,	-1,	40,	-1,	31,	-1,	-1,	41,	48,	2,	-1,	-1,	-1,	-1,	29,	-1,	46,	39,	-1,	-1,	-1,	-1,	61,	-1,	52,	57,	-1,	-1,	8,	-1,	14,	-1,	36,	-1,	-1,	19,	-1,	-1,	-1,	-1,	35,	4,	-1,	-1,	6|
25,	13,	-1,	28,	-1,	-1,	35,	43,	-1,	-1,	-1,	46,	64,	-1,	8,	-1,	-1,	32,	2,	-1,	-1,	6,	-1,	-1,	59,	54,	16,	9,	-1,	-1,	52,	63,	20,	44,	3,	-1,	10,	-1,	26,	-1,	-1,	38,	-1,	14,	-1,	12,	11,	40,	-1,	-1,	-1,	22,	-1,	45,	-1,	-1,	-1,	7,	-1,	58,	-1,	-1,	29,	-1|
-1,	29,	-1,	-1,	-1,	-1,	58,	-1,	-1,	-1,	28,	53,	-1,	-1,	2,	-1,	-1,	23,	37,	46,	15,	61,	-1,	-1,	-1,	64,	56,	-1,	10,	20,	55,	32,	-1,	-1,	51,	-1,	14,	-1,	-1,	42,	39,	49,	-1,	-1,	41,	-1,	1,	-1,	-1,	-1,	7,	63,	-1,	-1,	-1,	-1,	11,	52,	-1,	-1,	-1,	33,	54,	-1|
-1,	-1,	-1,	46,	-1,	-1,	14,	33,	13,	-1,	-1,	44,	-1,	42,	-1,	-1,	10,	-1,	-1,	58,	-1,	-1,	8,	56,	-1,	35,	-1,	-1,	-1,	-1,	51,	-1,	23,	37,	-1,	15,	-1,	-1,	52,	-1,	63,	6,	31,	-1,	22,	-1,	45,	-1,	-1,	-1,	32,	-1,	26,	-1,	-1,	59,	-1,	-1,	-1,	-1,	61,	-1,	48,	-1|
56,	-1,	34,	-1,	-1,	54,	-1,	63,	-1,	18,	-1,	4,	51,	-1,	52,	31,	53,	-1,	-1,	-1,	-1,	-1,	43,	12,	-1,	-1,	25,	3,	-1,	-1,	13,	23,	-1,	61,	38,	-1,	8,	55,	59,	40,	-1,	10,	32,	-1,	47,	64,	33,	-1,	-1,	-1,	-1,	-1,	2,	-1,	-1,	1,	-1,	46,	-1,	30,	-1,	22,	-1,	14|
47,	24,	61,	22,	-1,	11,	-1,	39,	26,	43,	-1,	-1,	-1,	59,	57,	-1,	63,	-1,	-1,	-1,	45,	-1,	-1,	-1,	-1,	-1,	62,	-1,	-1,	-1,	44,	-1,	-1,	9,	53,	-1,	30,	-1,	54,	-1,	16,	23,	-1,	-1,	-1,	-1,	58,	-1,	10,	-1,	-1,	-1,	50,	55,	-1,	8,	41,	-1,	-1,	32,	1,	-1,	51,	-1|
-1,	-1,	-1,	-1,	-1,	-1,	-1,	-1,	56,	8,	-1,	25,	10,	-1,	-1,	-1,	15,	45,	-1,	-1,	38,	36,	-1,	37,	7,	-1,	-1,	-1,	-1,	-1,	-1,	-1,	5,	6,	21,	54,	60,	-1,	-1,	47,	-1,	-1,	-1,	-1,	-1,	-1,	55,	-1,	64,	-1,	24,	-1,	-1,	-1,	-1,	-1,	40,	9,	22,	-1,	27,	-1,	-1,	-1|
-1,	7,	42,	-1,	-1,	21,	30,	-1,	-1,	31,	-1,	-1,	-1,	9,	37,	-1,	-1,	-1,	47,	56,	-1,	-1,	-1,	-1,	-1,	-1,	-1,	18,	-1,	-1,	-1,	45,	-1,	-1,	-1,	-1,	12,	-1,	-1,	-1,	-1,	-1,	23,	-1,	-1,	-1,	-1,	-1,	-1,	41,	-1,	59,	32,	63,	-1,	-1,	-1,	-1,	-1,	17,	-1,	-1,	64,	-1|
-1,	-1,	-1,	55,	-1,	-1,	23,	3,	11,	-1,	41,	-1,	21,	-1,	20,	13,	-1,	39,	59,	-1,	-1,	12,	-1,	-1,	-1,	57,	17,	-1,	-1,	-1,	-1,	-1,	-1,	-1,	-1,	44,	35,	-1,	28,	-1,	-1,	-1,	8,	-1,	-1,	-1,	-1,	-1,	1,	-1,	-1,	33,	-1,	37,	26,	-1,	50,	-1,	-1,	-1,	31,	-1,	-1,	-1|
-1,	-1,	32,	34,	48,	2,	60,	-1,	-1,	44,	-1,	50,	61,	-1,	-1,	1,	-1,	-1,	-1,	-1,	51,	-1,	57,	54,	56,	-1,	-1,	24,	4,	-1,	-1,	-1,	38,	-1,	17,	-1,	-1,	22,	-1,	-1,	-1,	18,	12,	-1,	43,	-1,	46,	3,	-1,	15,	-1,	-1,	-1,	-1,	-1,	40,	-1,	-1,	-1,	-1,	-1,	-1,	53,	11|
37,	-1,	64,	-1,	63,	-1,	-1,	-1,	-1,	59,	-1,	60,	-1,	-1,	5,	-1,	-1,	-1,	-1,	-1,	-1,	-1,	-1,	-1,	-1,	-1,	-1,	10,	61,	-1,	-1,	-1,	15,	-1,	-1,	-1,	-1,	43,	-1,	29,	34,	14,	-1,	-1,	-1,	52,	-1,	-1,	31,	-1,	-1,	53,	58,	42,	4,	-1,	-1,	-1,	-1,	-1,	-1,	56,	38,	-1|
51,	-1,	-1,	-1,	54,	-1,	-1,	59,	55,	-1,	-1,	-1,	-1,	-1,	-1,	-1,	-1,	58,	50,	-1,	18,	-1,	-1,	-1,	60,	-1,	36,	-1,	40,	21,	8,	-1,	-1,	63,	-1,	20,	53,	-1,	-1,	-1,	42,	-1,	-1,	9,	-1,	-1,	-1,	31,	-1,	-1,	-1,	29,	-1,	14,	-1,	-1,	15,	62,	37,	-1,	33,	30,	-1,	-1|
-1,	10,	-1,	-1,	53,	-1,	-1,	-1,	-1,	-1,	51,	29,	22,	2,	18,	-1,	-1,	-1,	-1,	6,	-1,	-1,	-1,	-1,	-1,	-1,	-1,	-1,	-1,	13,	19,	-1,	-1,	-1,	-1,	-1,	40,	-1,	-1,	50,	-1,	5,	64,	-1,	-1,	59,	-1,	26,	-1,	27,	-1,	-1,	36,	-1,	-1,	-1,	-1,	-1,	-1,	48,	-1,	-1,	-1,	-1|
-1,	-1,	-1,	-1,	-1,	-1,	-1,	-1,	15,	-1,	-1,	-1,	24,	34,	-1,	-1,	-1,	-1,	5,	-1,	-1,	64,	-1,	53,	-1,	-1,	51,	50,	29,	-1,	35,	-1,	-1,	-1,	-1,	-1,	-1,	41,	7,	-1,	-1,	4,	22,	48,	-1,	-1,	40,	-1,	16,	13,	-1,	-1,	46,	20,	57,	47,	-1,	59,	-1,	43,	-1,	-1,	-1,	-1|
27,	46,	-1,	-1,	-1,	18,	-1,	-1,	-1,	-1,	-1,	55,	-1,	1,	-1,	-1,	-1,	59,	32,	45,	-1,	-1,	10,	-1,	-1,	29,	38,	28,	7,	-1,	-1,	51,	-1,	-1,	-1,	-1,	3,	19,	-1,	37,	-1,	-1,	-1,	-1,	24,	-1,	-1,	-1,	14,	57,	-1,	30,	8,	-1,	-1,	-1,	-1,	-1,	-1,	42,	-1,	-1,	61,	-1|
45,	32,	-1,	-1,	-1,	-1,	63,	-1,	-1,	64,	-1,	-1,	-1,	-1,	46,	-1,	61,	30,	-1,	24,	23,	55,	-1,	-1,	26,	-1,	44,	-1,	6,	-1,	-1,	15,	47,	-1,	-1,	-1,	52,	-1,	-1,	7,	-1,	-1,	60,	28,	-1,	-1,	-1,	-1,	-1,	-1,	-1,	-1,	54,	-1,	-1,	21,	-1,	39,	-1,	-1,	48,	40,	-1,	31|
-1,	-1,	-1,	64,	8,	-1,	62,	20,	-1,	26,	-1,	24,	48,	53,	-1,	-1,	-1,	51,	-1,	16,	37,	5,	-1,	-1,	40,	59,	42,	-1,	-1,	43,	30,	39,	-1,	-1,	-1,	10,	-1,	-1,	-1,	13,	-1,	-1,	-1,	-1,	-1,	-1,	-1,	6,	-1,	-1,	-1,	56,	-1,	-1,	-1,	-1,	-1,	-1,	33,	-1,	-1,	-1,	63,	25|
-1,	-1,	-1,	33,	5,	-1,	53,	19,	-1,	34,	40,	-1,	-1,	-1,	-1,	-1,	-1,	-1,	41,	-1,	-1,	-1,	44,	-1,	-1,	46,	48,	35,	63,	-1,	24,	56,	-1,	54,	25,	-1,	32,	-1,	22,	-1,	64,	57,	-1,	-1,	-1,	58,	20,	-1,	-1,	-1,	3,	-1,	1,	-1,	-1,	31,	-1,	29,	-1,	8,	6,	-1,	10,	-1|
21,	-1,	51,	-1,	-1,	-1,	26,	47,	-1,	37,	61,	-1,	41,	-1,	10,	-1,	-1,	-1,	-1,	48,	7,	29,	-1,	42,	53,	-1,	55,	32,	14,	-1,	-1,	-1,	35,	-1,	40,	56,	-1,	-1,	62,	-1,	9,	-1,	16,	-1,	-1,	-1,	34,	-1,	25,	64,	-1,	-1,	6,	52,	-1,	-1,	-1,	-1,	-1,	38,	-1,	5,	-1,	30|
-1,	34,	-1,	-1,	38,	-1,	40,	-1,	-1,	-1,	-1,	13,	-1,	30,	39,	-1,	-1,	4,	-1,	60,	25,	-1,	53,	-1,	41,	23,	-1,	-1,	-1,	-1,	-1,	49,	-1,	-1,	-1,	-1,	-1,	-1,	-1,	-1,	46,	-1,	26,	-1,	-1,	-1,	-1,	19,	-1,	-1,	-1,	-1,	22,	28,	-1,	18,	-1,	51,	20,	-1,	-1,	43,	2,	9|
59,	2,	-1,	-1,	10,	-1,	-1,	25,	20,	-1,	-1,	54,	-1,	-1,	-1,	-1,	34,	64,	-1,	22,	-1,	8,	9,	-1,	-1,	-1,	-1,	37,	-1,	-1,	31,	-1,	-1,	-1,	5,	-1,	-1,	11,	50,	39,	-1,	17,	-1,	44,	33,	43,	7,	-1,	-1,	24,	-1,	-1,	40,	36,	23,	-1,	-1,	-1,	-1,	28,	60,	-1,	46,	-1|
24,	30,	-1,	57,	-1,	-1,	-1,	-1,	25,	-1,	-1,	43,	-1,	44,	-1,	-1,	-1,	-1,	-1,	49,	-1,	-1,	-1,	-1,	-1,	21,	11,	-1,	-1,	-1,	-1,	-1,	51,	-1,	-1,	-1,	-1,	-1,	-1,	36,	-1,	3,	42,	-1,	-1,	37,	-1,	-1,	58,	-1,	-1,	-1,	-1,	-1,	-1,	-1,	-1,	-1,	52,	-1,	64,	-1,	-1,	23|
40,	-1,	-1,	-1,	18,	60,	-1,	-1,	9,	-1,	5,	-1,	13,	-1,	-1,	46,	-1,	-1,	64,	-1,	-1,	-1,	-1,	-1,	-1,	-1,	2,	-1,	-1,	10,	23,	-1,	41,	7,	49,	47,	26,	-1,	25,	-1,	4,	33,	27,	1,	-1,	-1,	-1,	-1,	55,	-1,	57,	-1,	-1,	-1,	-1,	52,	-1,	-1,	-1,	-1,	-1,	59,	-1,	28|
46,	-1,	-1,	58,	-1,	26,	-1,	11,	-1,	-1,	8,	35,	-1,	-1,	-1,	-1,	-1,	5,	-1,	-1,	-1,	-1,	21,	-1,	12,	7,	-1,	-1,	-1,	51,	-1,	-1,	-1,	-1,	-1,	28,	1,	-1,	-1,	44,	-1,	43,	-1,	3,	-1,	42,	-1,	-1,	-1,	37,	56,	-1,	27,	-1,	-1,	-1,	2,	16,	-1,	-1,	-1,	-1,	-1,	-1|
42,	-1,	52,	-1,	-1,	64,	17,	-1,	63,	-1,	-1,	-1,	18,	-1,	-1,	22,	46,	-1,	-1,	-1,	13,	28,	39,	-1,	27,	-1,	-1,	-1,	-1,	-1,	61,	-1,	16,	48,	-1,	-1,	-1,	6,	40,	10,	-1,	-1,	-1,	-1,	-1,	-1,	9,	-1,	-1,	50,	-1,	58,	41,	-1,	-1,	-1,	-1,	-1,	49,	31,	-1,	-1,	-1,	-1|
5,	16,	57,	41,	-1,	28,	-1,	-1,	6,	-1,	64,	-1,	43,	-1,	-1,	-1,	-1,	-1,	17,	-1,	-1,	-1,	-1,	61,	34,	-1,	-1,	-1,	-1,	-1,	62,	-1,	53,	13,	39,	33,	36,	-1,	-1,	-1,	-1,	50,	14,	-1,	-1,	-1,	-1,	-1,	-1,	1,	20,	2,	59,	-1,	-1,	-1,	25,	-1,	-1,	-1,	-1,	63,	52,	8|
39,	54,	-1,	9,	21,	-1,	3,	56,	-1,	30,	-1,	-1,	-1,	-1,	-1,	20,	-1,	-1,	-1,	29,	8,	-1,	37,	-1,	11,	-1,	-1,	-1,	35,	41,	16,	-1,	31,	-1,	-1,	55,	-1,	61,	-1,	2,	-1,	59,	-1,	64,	12,	-1,	-1,	48,	22,	-1,	-1,	4,	-1,	-1,	63,	25,	-1,	47,	-1,	-1,	-1,	-1,	-1,	-1|
-1,	-1,	35,	-1,	-1,	63,	-1,	7,	-1,	57,	16,	2,	-1,	-1,	-1,	-1,	11,	1,	-1,	-1,	-1,	-1,	-1,	-1,	-1,	52,	-1,	-1,	-1,	-1,	36,	37,	21,	3,	8,	-1,	-1,	17,	-1,	-1,	13,	-1,	20,	-1,	40,	-1,	-1,	38,	-1,	47,	61,	64,	-1,	-1,	9,	10,	58,	-1,	-1,	51,	18,	27,	-1,	-1|
10,	-1,	-1,	15,	-1,	20,	-1,	51,	45,	-1,	1,	33,	3,	-1,	-1,	19,	-1,	-1,	-1,	-1,	47,	-1,	-1,	2,	-1,	-1,	-1,	42,	-1,	-1,	6,	-1,	-1,	-1,	-1,	64,	-1,	-1,	-1,	5,	-1,	-1,	7,	63,	-1,	8,	-1,	28,	-1,	-1,	-1,	26,	16,	-1,	12,	49,	-1,	23,	-1,	-1,	11,	34,	-1,	38|
-1,	27,	53,	32,	-1,	-1,	-1,	34,	-1,	-1,	56,	23,	58,	-1,	25,	-1,	-1,	-1,	63,	-1,	24,	-1,	-1,	-1,	-1,	28,	-1,	-1,	-1,	-1,	59,	-1,	60,	-1,	-1,	-1,	-1,	-1,	42,	51,	-1,	30,	49,	-1,	-1,	-1,	-1,	-1,	7,	44,	-1,	14,	33,	-1,	35,	36,	-1,	41,	-1,	-1,	-1,	-1,	45,	5|
-1,	11,	-1,	-1,	-1,	59,	-1,	2,	58,	-1,	-1,	51,	42,	62,	-1,	-1,	37,	48,	26,	-1,	-1,	-1,	-1,	13,	-1,	-1,	45,	20,	47,	17,	53,	-1,	50,	30,	54,	-1,	-1,	-1,	-1,	-1,	-1,	16,	-1,	-1,	-1,	63,	-1,	-1,	-1,	-1,	-1,	-1,	-1,	-1,	36,	12,	-1,	24,	-1,	-1,	28,	-1,	-1,	52|
-1,	-1,	-1,	-1,	-1,	24,	48,	-1,	-1,	-1,	-1,	47,	-1,	3,	-1,	-1,	57,	-1,	-1,	-1,	49,	63,	-1,	-1,	-1,	-1,	29,	-1,	59,	-1,	-1,	-1,	44,	53,	1,	-1,	2,	28,	45,	-1,	7,	34,	17,	50,	14,	-1,	-1,	39,	41,	42,	-1,	-1,	-1,	-1,	64,	-1,	-1,	6,	-1,	-1,	5,	23,	32,	-1|
-1,	-1,	-1,	18,	-1,	-1,	47,	44,	-1,	48,	-1,	32,	-1,	28,	-1,	-1,	-1,	2,	53,	-1,	-1,	-1,	-1,	16,	3,	10,	-1,	26,	-1,	-1,	-1,	-1,	27,	-1,	15,	-1,	62,	-1,	-1,	63,	-1,	51,	-1,	-1,	-1,	24,	-1,	4,	59,	-1,	23,	-1,	29,	-1,	-1,	-1,	-1,	-1,	-1,	-1,	-1,	37,	-1,	7|
-1,	-1,	25,	-1,	-1,	-1,	29,	28,	-1,	-1,	7,	19,	34,	12,	-1,	-1,	-1,	-1,	-1,	-1,	11,	-1,	-1,	-1,	-1,	32,	50,	-1,	48,	44,	-1,	43,	-1,	24,	-1,	-1,	42,	39,	-1,	46,	-1,	55,	-1,	15,	-1,	41,	47,	10,	-1,	-1,	-1,	-1,	-1,	-1,	53,	16,	-1,	-1,	-1,	-1,	59,	-1,	-1,	-1|
-1,	-1,	-1,	-1,	-1,	-1,	1,	-1,	4,	54,	-1,	-1,	53,	50,	61,	44,	45,	9,	-1,	-1,	36,	-1,	-1,	-1,	-1,	-1,	24,	23,	-1,	-1,	7,	-1,	-1,	-1,	10,	-1,	18,	-1,	17,	-1,	-1,	19,	-1,	-1,	20,	13,	-1,	-1,	38,	-1,	-1,	11,	-1,	43,	32,	-1,	-1,	48,	-1,	-1,	-1,	-1,	-1,	-1|
41,	-1,	20,	50,	-1,	38,	-1,	-1,	-1,	-1,	-1,	-1,	1,	-1,	22,	-1,	-1,	61,	-1,	44,	-1,	-1,	58,	3,	54,	9,	-1,	56,	-1,	-1,	-1,	8,	12,	51,	19,	-1,	16,	59,	60,	-1,	-1,	-1,	-1,	-1,	-1,	-1,	28,	-1,	39,	-1,	-1,	-1,	35,	34,	-1,	37,	13,	-1,	-1,	33,	63,	-1,	-1,	2|
-1,	-1,	31,	39,	-1,	42,	51,	45,	-1,	-1,	23,	-1,	27,	-1,	-1,	17,	-1,	-1,	43,	-1,	35,	50,	18,	10,	-1,	-1,	60,	-1,	57,	-1,	-1,	-1,	29,	-1,	-1,	-1,	-1,	-1,	-1,	-1,	2,	-1,	-1,	-1,	26,	-1,	-1,	1,	15,	33,	54,	7,	3,	-1,	62,	24,	8,	30,	-1,	-1,	16,	-1,	-1,	-1|
15,	19,	63,	16,	-1,	-1,	64,	12,	-1,	33,	30,	-1,	-1,	-1,	-1,	41,	17,	55,	24,	-1,	28,	39,	5,	-1,	-1,	-1,	52,	-1,	-1,	62,	-1,	35,	-1,	-1,	-1,	22,	49,	38,	-1,	32,	6,	-1,	-1,	-1,	59,	-1,	-1,	-1,	8,	2,	-1,	-1,	-1,	57,	58,	-1,	60,	4,	-1,	-1,	-1,	-1,	-1,	44|
60,	-1,	-1,	-1,	-1,	36,	-1,	62,	42,	15,	26,	-1,	32,	41,	43,	-1,	-1,	-1,	16,	31,	12,	-1,	13,	-1,	-1,	-1,	10,	-1,	-1,	46,	3,	-1,	7,	-1,	11,	-1,	-1,	-1,	-1,	-1,	-1,	25,	54,	-1,	-1,	40,	-1,	56,	53,	-1,	-1,	-1,	-1,	-1,	-1,	38,	51,	-1,	-1,	-1,	-1,	-1,	23,	-1|
43,	-1,	-1,	20,	55,	-1,	-1,	-1,	-1,	-1,	-1,	56,	40,	7,	-1,	-1,	-1,	10,	61,	57,	1,	2,	-1,	28,	23,	41,	-1,	52,	18,	-1,	63,	-1,	-1,	-1,	-1,	-1,	-1,	-1,	47,	-1,	36,	58,	33,	-1,	-1,	11,	49,	-1,	4,	25,	-1,	27,	-1,	46,	-1,	-1,	-1,	-1,	-1,	-1,	8,	-1,	34,	48|
49,	-1,	-1,	-1,	58,	-1,	5,	-1,	64,	-1,	-1,	45,	-1,	-1,	-1,	62,	52,	-1,	19,	8,	34,	42,	51,	-1,	24,	53,	35,	1,	-1,	-1,	47,	-1,	-1,	12,	-1,	-1,	-1,	-1,	-1,	15,	-1,	-1,	-1,	-1,	-1,	-1,	-1,	-1,	43,	29,	-1,	-1,	10,	-1,	22,	-1,	32,	-1,	-1,	-1,	3,	50,	-1,	36|
-1,	-1,	1,	2,	-1,	-1,	18,	40,	48,	60,	-1,	21,	46,	-1,	-1,	12,	-1,	-1,	-1,	-1,	62,	56,	38,	55,	-1,	-1,	13,	-1,	-1,	-1,	-1,	22,	32,	-1,	-1,	-1,	-1,	-1,	-1,	27,	-1,	-1,	-1,	29,	39,	-1,	-1,	-1,	-1,	23,	-1,	-1,	-1,	-1,	7,	-1,	59,	-1,	54,	63,	30,	61,	-1,	-1|
22,	6,	11,	26,	-1,	48,	-1,	30,	28,	-1,	-1,	-1,	-1,	55,	-1,	-1,	-1,	-1,	-1,	50,	-1,	-1,	-1,	9,	21,	36,	-1,	-1,	-1,	61,	-1,	-1,	37,	10,	56,	45,	34,	16,	-1,	19,	-1,	13,	63,	-1,	62,	-1,	4,	-1,	-1,	-1,	40,	-1,	-1,	-1,	-1,	-1,	-1,	-1,	-1,	64,	-1,	35,	25,	57|
-1,	61,	21,	23,	-1,	-1,	-1,	46,	35,	-1,	58,	10,	-1,	-1,	-1,	-1,	-1,	41,	-1,	-1,	40,	33,	60,	-1,	-1,	20,	-1,	-1,	-1,	31,	-1,	28,	-1,	-1,	-1,	-1,	48,	-1,	3,	-1,	-1,	-1,	-1,	-1,	44,	-1,	-1,	52,	-1,	-1,	6,	-1,	-1,	5,	56,	32,	-1,	19,	-1,	-1,	39,	-1,	62,	-1|
32,	63,	-1,	-1,	-1,	-1,	10,	-1,	-1,	-1,	-1,	-1,	-1,	8,	27,	16,	43,	-1,	14,	7,	-1,	26,	-1,	-1,	-1,	-1,	-1,	2,	12,	-1,	-1,	-1,	13,	-1,	23,	24,	-1,	21,	-1,	-1,	35,	-1,	-1,	-1,	28,	60,	19,	53,	36,	-1,	-1,	-1,	47,	58,	-1,	-1,	-1,	49,	-1,	-1,	-1,	44,	-1,	-1|
28,	-1,	-1,	51,	41,	-1,	-1,	-1,	-1,	-1,	-1,	22,	-1,	-1,	-1,	-1,	-1,	-1,	-1,	-1,	4,	-1,	23,	-1,	-1,	27,	-1,	-1,	-1,	-1,	40,	34,	-1,	-1,	-1,	38,	-1,	-1,	-1,	-1,	-1,	-1,	-1,	26,	32,	-1,	-1,	-1,	-1,	-1,	13,	-1,	-1,	61,	31,	63,	24,	33,	7,	-1,	-1,	-1,	-1,	46|];
