sudoku-ls/benchmarks_LEQ/INST_64x64/40/inst64x64_40_99.txt
8
1
3	-1	18	-1	-1	-1	-1	53	37	-1	-1	8	-1	-1	-1	47	-1	-1	-1	39	-1	-1	41	-1	-1	-1	64	-1	31	-1	-1	-1	10	49	14	13	4	-1	-1	-1	-1	-1	1	-1	-1	15	-1	-1	-1	36	38	32	-1	-1	-1	-1	-1	-1	-1	16	-1	-1	35	55
16	25	40	19	27	-1	-1	-1	-1	-1	10	-1	45	-1	-1	-1	-1	-1	62	-1	-1	-1	-1	-1	47	1	28	4	9	-1	37	21	-1	-1	31	-1	29	-1	24	-1	-1	-1	61	8	-1	39	-1	-1	18	55	59	-1	49	-1	43	-1	-1	50	-1	14	41	-1	-1	64
-1	-1	-1	38	-1	22	42	-1	-1	32	-1	31	-1	-1	1	-1	-1	60	-1	-1	-1	-1	29	-1	-1	17	19	39	24	12	-1	-1	-1	-1	-1	-1	-1	-1	-1	-1	-1	53	-1	-1	-1	-1	56	-1	63	20	-1	-1	-1	10	-1	-1	46	21	-1	-1	-1	-1	40	-1
-1	-1	48	-1	-1	62	-1	-1	-1	-1	13	41	-1	-1	64	-1	-1	-1	-1	61	10	-1	15	-1	-1	-1	-1	16	-1	-1	46	-1	-1	-1	-1	-1	-1	53	-1	-1	28	32	-1	43	55	-1	-1	60	-1	-1	-1	-1	-1	-1	1	33	6	45	25	-1	26	-1	-1	-1
-1	36	58	29	59	52	-1	-1	18	19	-1	-1	-1	57	-1	-1	-1	28	-1	47	30	-1	-1	25	-1	-1	27	-1	-1	-1	-1	-1	-1	21	-1	17	44	-1	-1	23	-1	48	13	-1	-1	-1	63	-1	3	-1	-1	12	45	-1	-1	-1	1	-1	-1	-1	-1	42	49	22
-1	-1	45	-1	-1	-1	28	-1	-1	-1	-1	30	-1	-1	34	-1	7	-1	-1	-1	-1	1	31	-1	32	-1	-1	-1	-1	-1	56	-1	54	-1	60	19	61	-1	-1	41	-1	-1	9	47	-1	-1	-1	-1	-1	22	11	62	4	-1	-1	-1	48	58	-1	59	37	-1	-1	-1
11	15	-1	-1	-1	32	41	-1	61	2	24	-1	-1	-1	59	-1	21	13	58	-1	50	-1	16	8	-1	-1	-1	-1	-1	-1	-1	62	1	-1	-1	-1	-1	5	-1	56	14	-1	-1	54	30	-1	12	-1	47	-1	-1	44	34	23	27	-1	-1	-1	-1	-1	51	-1	-1	-1
-1	64	-1	-1	-1	10	-1	-1	-1	-1	-1	-1	-1	-1	-1	-1	3	56	-1	-1	-1	-1	-1	5	22	34	20	43	-1	-1	-1	-1	55	-1	63	-1	-1	-1	-1	48	17	-1	-1	49	29	57	-1	-1	-1	19	14	-1	30	-1	-1	-1	54	8	-1	60	-1	2	-1	4
-1	-1	-1	7	9	-1	-1	-1	41	36	25	-1	-1	-1	-1	-1	6	-1	-1	-1	46	-1	-1	-1	20	-1	-1	31	62	-1	-1	12	-1	5	-1	8	-1	-1	11	-1	37	24	-1	-1	52	-1	18	-1	-1	10	-1	23	-1	-1	30	-1	-1	-1	-1	4	-1	-1	-1	-1
8	45	-1	-1	-1	-1	32	23	-1	13	55	18	54	-1	-1	64	-1	-1	-1	-1	41	-1	-1	1	46	3	37	57	25	26	33	-1	9	43	-1	-1	-1	52	63	-1	-1	-1	56	-1	-1	-1	-1	-1	-1	58	28	35	-1	-1	-1	14	12	40	-1	7	-1	-1	-1	17
-1	-1	-1	-1	39	41	-1	13	-1	28	49	-1	-1	-1	-1	-1	-1	-1	-1	-1	-1	-1	2	-1	-1	22	-1	-1	51	-1	-1	18	-1	56	-1	-1	-1	-1	-1	-1	-1	-1	-1	23	5	-1	29	-1	17	-1	36	-1	-1	3	20	-1	-1	-1	-1	-1	46	-1	-1	61
12	17	59	-1	35	25	22	49	-1	1	3	-1	-1	-1	9	56	-1	-1	18	-1	-1	-1	-1	60	13	-1	6	15	-1	-1	4	-1	46	-1	44	-1	-1	27	-1	-1	-1	-1	51	-1	-1	-1	26	47	-1	-1	-1	8	5	41	-1	-1	-1	-1	-1	52	45	-1	36	-1
-1	4	44	5	-1	-1	-1	57	-1	46	-1	26	-1	22	-1	10	-1	-1	-1	-1	-1	53	30	52	35	-1	-1	-1	55	29	-1	-1	-1	17	50	-1	-1	-1	15	38	-1	63	19	-1	-1	-1	-1	9	-1	-1	33	-1	61	25	37	-1	-1	-1	48	62	-1	-1	-1	-1
-1	62	-1	-1	-1	-1	-1	-1	-1	-1	-1	57	-1	-1	-1	6	-1	-1	-1	-1	-1	-1	-1	45	-1	-1	34	-1	-1	-1	-1	-1	-1	33	-1	-1	41	-1	19	-1	-1	8	25	42	46	-1	-1	-1	-1	60	-1	52	-1	-1	59	-1	-1	18	-1	9	-1	-1	16	-1
-1	-1	-1	-1	31	46	-1	15	-1	-1	-1	-1	-1	32	-1	42	19	-1	-1	35	-1	10	-1	21	-1	-1	-1	-1	-1	-1	60	59	-1	57	-1	30	-1	-1	1	-1	41	-1	6	-1	-1	61	-1	-1	12	-1	-1	-1	-1	-1	-1	53	63	26	-1	-1	-1	-1	-1	-1
19	18	33	10	-1	14	56	-1	-1	-1	-1	-1	31	-1	-1	2	25	54	-1	-1	-1	15	-1	-1	-1	-1	-1	-1	-1	9	39	-1	-1	-1	32	-1	-1	48	-1	-1	-1	-1	-1	-1	35	-1	13	49	57	-1	-1	-1	-1	64	-1	-1	30	-1	-1	-1	22	-1	8	53
-1	40	-1	-1	-1	-1	-1	-1	-1	-1	-1	-1	-1	-1	50	3	-1	-1	38	-1	-1	-1	-1	64	-1	60	-1	58	30	-1	-1	-1	63	-1	-1	43	-1	-1	12	-1	-1	35	-1	18	-1	-1	25	-1	-1	9	41	-1	-1	24	29	56	47	5	8	45	19	-1	37	-1
-1	41	7	-1	4	-1	-1	17	-1	-1	-1	61	12	-1	-1	25	13	-1	-1	51	-1	-1	-1	-1	-1	8	-1	47	-1	11	49	-1	48	-1	16	32	58	-1	-1	-1	54	-1	-1	53	9	-1	50	-1	-1	40	-1	57	-1	-1	44	23	-1	-1	-1	-1	-1	-1	60	-1
-1	44	9	-1	-1	55	-1	-1	-1	7	15	-1	5	54	-1	-1	-1	-1	30	25	-1	-1	-1	31	-1	-1	-1	-1	2	28	38	-1	56	-1	47	-1	39	-1	21	45	-1	61	-1	-1	57	26	-1	-1	33	-1	-1	36	11	-1	19	-1	-1	-1	-1	35	-1	-1	20	-1
-1	-1	-1	-1	60	-1	35	43	-1	41	-1	-1	-1	-1	-1	-1	-1	-1	2	-1	21	-1	-1	4	59	-1	16	-1	36	-1	-1	63	-1	44	-1	-1	10	57	-1	17	-1	38	-1	-1	-1	-1	11	-1	-1	-1	-1	-1	-1	-1	15	-1	55	-1	-1	58	-1	-1	-1	-1
48	-1	-1	31	45	-1	-1	-1	-1	22	-1	53	-1	38	2	30	60	-1	-1	46	-1	-1	-1	-1	-1	-1	56	5	-1	-1	-1	-1	19	-1	-1	50	14	-1	6	-1	39	-1	-1	-1	-1	-1	-1	36	13	-1	-1	63	-1	-1	-1	35	-1	52	9	-1	-1	33	-1	26
-1	-1	38	46	-1	-1	-1	-1	-1	-1	20	-1	-1	-1	11	-1	-1	-1	-1	-1	-1	-1	8	56	1	35	7	-1	-1	34	51	-1	-1	37	41	15	64	-1	52	-1	63	-1	31	-1	22	17	45	-1	30	-1	32	-1	-1	-1	-1	-1	-1	-1	-1	-1	-1	12	-1	-1
-1	-1	-1	-1	-1	54	-1	63	-1	-1	-1	-1	-1	58	52	-1	-1	50	48	11	26	41	-1	12	42	-1	-1	-1	39	-1	13	-1	-1	-1	38	35	-1	-1	59	40	-1	10	-1	7	47	-1	33	44	62	-1	-1	-1	-1	-1	-1	1	-1	-1	-1	-1	-1	22	-1	14
-1	24	61	-1	-1	11	-1	-1	-1	43	-1	-1	-1	-1	57	-1	63	-1	-1	-1	-1	18	-1	-1	-1	-1	-1	-1	-1	-1	44	4	-1	-1	53	60	30	36	-1	-1	-1	-1	-1	5	3	56	-1	-1	10	-1	-1	-1	-1	55	38	-1	41	-1	2	32	-1	25	-1	-1
29	-1	-1	-1	-1	-1	46	-1	-1	-1	42	-1	10	-1	-1	14	15	-1	-1	-1	-1	-1	-1	37	7	44	-1	59	-1	52	58	-1	5	6	-1	54	60	34	-1	47	53	-1	-1	32	50	-1	55	-1	-1	43	-1	-1	48	-1	-1	-1	-1	-1	-1	-1	-1	13	-1	51
-1	-1	-1	-1	24	-1	30	-1	-1	-1	-1	48	-1	-1	-1	43	40	-1	-1	-1	22	-1	-1	-1	15	-1	46	-1	28	-1	-1	-1	-1	-1	4	16	-1	-1	-1	-1	-1	-1	-1	25	19	-1	-1	-1	-1	-1	50	59	-1	-1	-1	60	-1	-1	-1	17	49	-1	64	39
18	52	-1	-1	16	-1	23	3	-1	40	41	58	21	64	20	-1	-1	-1	-1	2	-1	-1	19	-1	-1	-1	17	38	-1	-1	-1	30	36	-1	48	-1	-1	-1	28	9	-1	-1	8	-1	-1	54	-1	62	1	-1	10	-1	51	-1	26	-1	50	61	-1	-1	-1	-1	47	42
-1	-1	32	-1	48	2	60	-1	-1	-1	-1	50	-1	-1	-1	-1	-1	-1	-1	-1	51	21	-1	54	56	39	-1	24	-1	-1	-1	-1	-1	45	-1	-1	19	-1	-1	59	-1	18	-1	-1	43	6	46	-1	23	-1	-1	-1	-1	35	8	-1	28	-1	63	36	29	20	53	11
-1	-1	-1	11	63	40	-1	-1	-1	-1	46	-1	57	-1	-1	-1	-1	-1	-1	-1	16	-1	24	-1	9	49	-1	-1	61	-1	12	48	15	-1	-1	-1	33	-1	-1	29	-1	14	-1	13	51	-1	39	41	31	-1	19	53	58	-1	-1	-1	-1	-1	-1	-1	-1	56	38	-1
51	43	22	-1	-1	6	-1	-1	-1	47	39	-1	4	-1	-1	32	48	-1	-1	-1	18	25	35	-1	-1	-1	-1	-1	-1	-1	-1	-1	-1	-1	-1	-1	-1	-1	-1	-1	-1	56	38	-1	17	-1	-1	-1	28	-1	-1	-1	-1	14	-1	-1	-1	-1	37	-1	-1	-1	-1	-1
-1	-1	-1	8	-1	45	20	14	-1	63	-1	-1	-1	-1	-1	28	-1	43	-1	-1	55	-1	17	-1	-1	-1	1	-1	-1	-1	-1	-1	-1	-1	61	-1	40	-1	49	50	58	5	-1	37	60	-1	-1	-1	56	27	-1	38	36	7	-1	30	-1	54	-1	48	52	-1	24	-1
9	-1	-1	49	-1	-1	39	36	-1	6	-1	-1	24	34	-1	-1	-1	42	-1	33	-1	-1	-1	53	-1	37	51	-1	29	-1	35	26	18	-1	-1	-1	-1	-1	-1	14	21	4	-1	48	-1	27	-1	63	-1	-1	-1	-1	46	-1	-1	-1	45	-1	19	43	-1	10	-1	-1
-1	46	-1	56	22	-1	-1	-1	-1	-1	12	-1	52	1	15	-1	-1	59	32	-1	-1	-1	-1	63	-1	29	38	-1	7	33	-1	-1	-1	26	-1	-1	-1	19	16	37	-1	-1	-1	-1	-1	-1	-1	-1	-1	-1	-1	30	-1	-1	13	-1	-1	-1	-1	42	47	-1	-1	35
45	32	-1	36	12	-1	63	16	-1	64	-1	-1	-1	27	-1	-1	61	30	-1	-1	-1	55	33	57	26	-1	44	-1	6	-1	-1	-1	-1	-1	-1	1	-1	-1	29	7	49	-1	60	28	-1	-1	-1	25	-1	35	34	-1	-1	4	51	-1	56	-1	3	-1	-1	40	41	-1
55	1	-1	64	-1	-1	62	-1	23	-1	22	-1	-1	53	3	11	-1	-1	-1	-1	-1	5	-1	-1	40	59	42	54	-1	-1	-1	-1	2	-1	28	10	21	-1	57	-1	52	-1	45	-1	-1	-1	-1	-1	29	-1	-1	56	-1	9	49	44	-1	-1	-1	-1	-1	-1	-1	25
7	42	-1	-1	-1	23	-1	-1	-1	-1	-1	-1	60	-1	-1	-1	18	-1	41	-1	-1	62	-1	-1	36	46	48	-1	-1	-1	24	56	-1	-1	-1	-1	-1	-1	22	43	64	-1	-1	-1	-1	-1	20	-1	26	16	-1	-1	-1	-1	2	-1	-1	29	-1	-1	-1	-1	-1	-1
21	50	-1	44	-1	31	-1	47	-1	37	61	-1	41	-1	10	-1	28	-1	13	48	7	29	-1	42	-1	58	-1	32	-1	60	-1	-1	-1	-1	-1	-1	63	-1	-1	-1	9	-1	16	-1	-1	-1	34	-1	-1	64	39	46	-1	-1	33	-1	4	-1	-1	-1	-1	-1	-1	30
-1	-1	-1	52	-1	37	40	-1	33	-1	-1	-1	-1	-1	39	57	-1	4	-1	-1	-1	54	-1	58	-1	-1	-1	-1	-1	-1	64	49	8	-1	27	31	55	-1	44	6	46	36	-1	-1	63	-1	-1	-1	-1	62	47	42	-1	-1	-1	18	7	-1	-1	11	-1	-1	-1	9
-1	-1	-1	3	-1	29	49	-1	20	-1	45	54	6	-1	51	4	34	-1	-1	-1	14	8	9	38	62	61	-1	-1	-1	-1	-1	-1	-1	-1	-1	42	-1	11	50	-1	-1	-1	-1	-1	-1	43	-1	-1	-1	-1	27	48	-1	-1	-1	19	-1	1	16	28	-1	-1	-1	-1
24	-1	-1	-1	-1	-1	-1	61	25	-1	-1	-1	29	44	-1	-1	56	-1	-1	49	6	-1	-1	26	5	21	-1	-1	45	19	-1	2	51	4	-1	-1	38	33	53	-1	-1	-1	-1	-1	-1	37	8	-1	-1	-1	-1	-1	63	50	-1	-1	62	34	52	-1	64	-1	22	-1
40	-1	-1	24	-1	-1	-1	-1	-1	-1	-1	-1	13	15	21	-1	-1	35	-1	-1	44	16	-1	-1	-1	-1	2	-1	-1	10	-1	53	-1	-1	-1	-1	-1	14	25	30	-1	-1	27	-1	-1	31	-1	-1	55	11	57	-1	42	-1	-1	-1	19	17	-1	-1	62	-1	3	28
46	48	-1	58	-1	-1	-1	11	47	-1	8	35	-1	52	41	-1	-1	5	60	-1	9	-1	-1	-1	-1	-1	22	-1	32	51	-1	-1	57	-1	-1	28	1	-1	-1	-1	18	-1	39	-1	36	-1	-1	-1	24	37	-1	-1	27	-1	17	13	2	-1	-1	61	-1	64	-1	33
-1	55	52	25	29	-1	-1	-1	63	62	-1	-1	18	-1	-1	22	-1	-1	-1	53	13	-1	39	20	27	-1	57	-1	33	-1	-1	19	-1	-1	12	59	11	-1	40	10	26	-1	-1	24	56	-1	9	2	45	-1	-1	58	41	54	-1	-1	-1	44	49	-1	35	-1	-1	43
5	16	57	-1	44	-1	12	-1	-1	-1	-1	-1	43	-1	26	-1	-1	7	-1	30	19	-1	-1	-1	-1	47	9	46	-1	-1	62	-1	53	13	-1	-1	36	-1	18	-1	-1	-1	14	35	21	45	-1	58	-1	1	-1	-1	59	-1	-1	29	-1	10	-1	54	32	-1	52	-1
-1	54	62	9	-1	-1	-1	56	-1	-1	-1	36	-1	-1	7	20	-1	33	-1	-1	8	45	37	49	-1	5	-1	-1	-1	41	-1	-1	31	-1	-1	55	-1	-1	-1	2	-1	59	52	-1	-1	-1	-1	-1	-1	-1	-1	4	18	38	63	-1	-1	47	-1	40	-1	1	-1	-1
-1	-1	-1	45	19	63	-1	7	-1	-1	16	-1	-1	-1	-1	55	11	-1	-1	-1	48	32	14	-1	44	-1	-1	30	26	-1	36	-1	21	3	8	29	54	-1	-1	-1	-1	60	-1	-1	-1	-1	-1	-1	-1	47	-1	-1	23	-1	9	10	-1	12	-1	51	-1	-1	-1	50
-1	14	-1	15	-1	20	61	-1	-1	-1	1	33	-1	60	-1	19	59	-1	-1	-1	47	-1	27	2	-1	-1	-1	42	-1	-1	6	-1	-1	-1	24	64	22	32	-1	-1	-1	-1	7	63	-1	-1	62	28	48	-1	46	-1	16	-1	12	-1	-1	-1	56	-1	-1	34	-1	-1
2	27	-1	-1	47	4	-1	34	-1	11	-1	-1	58	-1	-1	39	26	-1	-1	-1	24	-1	-1	62	-1	28	-1	29	3	-1	59	-1	-1	50	-1	52	-1	-1	-1	51	19	30	-1	16	61	-1	-1	-1	7	-1	-1	14	-1	-1	-1	36	-1	-1	-1	-1	-1	48	-1	5
4	11	8	-1	7	59	-1	-1	-1	29	-1	-1	42	62	56	40	-1	48	26	-1	-1	-1	-1	-1	-1	-1	45	-1	-1	-1	53	33	-1	-1	54	5	-1	-1	34	57	25	-1	-1	-1	-1	-1	27	64	-1	-1	-1	-1	55	-1	-1	-1	-1	-1	31	-1	-1	41	-1	-1
33	-1	54	61	-1	-1	-1	10	-1	-1	31	-1	-1	3	55	-1	-1	-1	-1	-1	-1	63	-1	-1	16	-1	-1	22	-1	-1	-1	46	-1	-1	1	-1	-1	-1	45	-1	7	-1	-1	-1	14	35	-1	39	-1	-1	-1	-1	60	19	-1	-1	-1	6	51	26	-1	23	-1	62
17	60	5	18	-1	49	-1	44	39	48	-1	-1	-1	28	-1	-1	-1	-1	53	-1	-1	34	-1	-1	3	-1	-1	-1	58	-1	14	11	-1	-1	15	-1	-1	-1	-1	-1	-1	-1	-1	-1	8	-1	-1	4	-1	-1	-1	-1	29	-1	-1	-1	-1	-1	64	-1	54	-1	9	-1
-1	22	-1	-1	-1	30	-1	-1	49	-1	-1	-1	34	-1	63	-1	-1	-1	-1	-1	-1	60	-1	6	38	-1	50	64	-1	-1	-1	-1	-1	-1	-1	-1	42	39	14	-1	-1	-1	58	-1	-1	-1	-1	10	-1	-1	4	9	-1	-1	-1	16	-1	3	18	-1	-1	45	17	20
62	-1	56	-1	46	-1	-1	52	-1	54	-1	-1	53	-1	-1	-1	-1	-1	-1	-1	36	22	-1	-1	39	-1	-1	-1	-1	37	7	27	-1	47	10	-1	-1	-1	17	8	-1	-1	-1	57	-1	-1	60	-1	-1	63	-1	-1	-1	43	32	5	14	-1	-1	-1	-1	58	-1	-1
-1	23	-1	-1	-1	-1	55	32	-1	24	43	-1	1	10	-1	26	-1	61	-1	44	-1	7	-1	-1	54	-1	-1	-1	49	-1	15	8	12	-1	19	21	-1	-1	60	-1	-1	46	29	62	-1	5	28	18	39	-1	-1	47	-1	34	-1	37	13	11	27	33	-1	-1	-1	-1
53	58	-1	-1	-1	-1	-1	-1	59	-1	23	-1	27	-1	13	17	41	-1	43	-1	35	50	18	10	63	-1	-1	-1	57	-1	-1	61	-1	-1	37	4	56	64	-1	-1	2	22	-1	-1	-1	32	-1	-1	-1	-1	-1	7	3	-1	62	-1	8	-1	38	12	16	46	21	34
-1	-1	-1	16	-1	27	-1	-1	46	-1	-1	-1	-1	18	45	41	17	55	-1	54	-1	-1	5	29	-1	-1	52	13	-1	-1	34	-1	-1	-1	7	-1	49	-1	48	32	-1	-1	-1	-1	59	-1	-1	-1	-1	2	-1	-1	-1	-1	-1	-1	60	-1	-1	-1	40	53	-1	44
60	-1	-1	14	52	36	8	-1	-1	15	-1	-1	-1	41	43	-1	-1	-1	16	31	12	-1	-1	-1	-1	33	-1	44	-1	-1	3	-1	-1	-1	11	-1	-1	50	-1	-1	-1	-1	-1	-1	-1	40	-1	-1	-1	-1	-1	-1	-1	2	-1	-1	51	-1	-1	-1	-1	-1	-1	-1
43	-1	-1	20	55	-1	-1	-1	-1	50	-1	-1	40	7	-1	-1	64	10	-1	-1	-1	2	32	-1	23	41	39	-1	-1	45	63	-1	-1	-1	26	14	-1	-1	-1	-1	-1	58	33	6	-1	11	-1	5	-1	-1	35	27	44	46	-1	-1	-1	-1	12	53	8	-1	-1	-1
-1	56	-1	13	58	7	5	-1	-1	-1	44	-1	-1	61	-1	62	-1	21	-1	-1	34	42	51	11	24	-1	-1	-1	-1	-1	-1	-1	6	12	-1	63	20	-1	39	-1	-1	-1	-1	-1	-1	-1	-1	-1	43	-1	-1	60	10	-1	22	-1	-1	28	-1	41	3	-1	-1	36
-1	-1	-1	2	-1	-1	-1	-1	48	60	-1	21	-1	-1	-1	12	-1	-1	36	-1	62	56	38	55	14	51	-1	49	37	-1	-1	-1	32	52	9	-1	-1	44	-1	-1	8	42	15	29	-1	3	-1	-1	-1	23	-1	-1	-1	-1	-1	28	59	43	-1	-1	-1	-1	-1	10
-1	-1	-1	-1	42	48	44	30	-1	-1	-1	-1	-1	55	33	23	-1	-1	-1	50	-1	47	46	9	-1	-1	32	-1	-1	61	5	29	-1	10	56	-1	34	16	41	19	-1	-1	63	-1	62	-1	4	-1	-1	-1	-1	1	20	-1	-1	-1	-1	-1	-1	-1	17	-1	-1	57
38	61	-1	-1	17	-1	-1	46	35	-1	-1	-1	-1	-1	36	53	-1	41	22	-1	40	-1	-1	-1	30	-1	59	-1	-1	-1	-1	-1	-1	-1	2	25	-1	-1	3	55	57	7	-1	12	-1	-1	-1	-1	49	-1	6	34	-1	5	-1	32	42	-1	-1	-1	-1	9	-1	-1
-1	-1	29	59	-1	-1	-1	-1	5	-1	-1	-1	9	-1	27	16	43	-1	-1	7	-1	-1	-1	-1	-1	38	-1	-1	-1	42	-1	17	-1	18	23	-1	-1	-1	33	61	-1	-1	-1	-1	-1	-1	-1	53	-1	-1	-1	-1	47	58	48	-1	52	49	40	6	-1	44	-1	37
-1	-1	-1	51	41	-1	-1	-1	-1	-1	18	22	-1	-1	6	-1	-1	25	-1	-1	-1	-1	23	-1	-1	-1	58	-1	64	-1	-1	34	-1	-1	-1	-1	17	-1	-1	-1	-1	-1	-1	26	-1	-1	30	-1	-1	8	-1	37	-1	-1	-1	63	24	33	7	-1	15	-1	5	-1
64 
56 51 16 29
17 46 2 47
4 60 56 5
17 43 25 20
36 5 28 51
46 54 1 19
4 32 13 38
33 53 15 19
30 44 58 2
45 46 5 25
40 27 5 26
63 29 36 38
32 50 15 52
37 29 49 20
42 47 23 5
54 37 35 20
59 48 9 20
40 35 57 55
30 15 37 18
7 57 24 20
49 49 33 42
24 4 7 48
51 51 19 1
15 64 53 27
54 40 28 58
47 52 45 57
64 26 4 39
9 19 62 32
26 18 55 33
2 63 50 24
27 61 11 50
9 48 21 32
60 6 27 52
63 12 9 18
27 37 3 39
14 7 10 32
20 11 62 13
2 62 35 50
20 53 10 42
25 57 48 14
32 38 54 1
53 48 58 56
51 5 38 62
8 29 42 40
18 10 51 55
2 48 40 18
51 7 24 1
17 41 22 63
19 62 21 42
62 43 50 44
51 42 53 51
1 32 49 64
36 7 11 43
11 31 61 11
9 3 29 30
23 1 1 58
40 4 37 58
54 23 62 11
10 47 64 22
22 16 48 33
9 16 35 44
26 4 12 42
6 1 30 34
31 43 50 55
